proyfinal/src/viki/013/andrea/andrea-localstore/experimentInOfficeAgust.take6/worker_1/e2166ec0-5496-4385-b855-333efb8c343c.als.cnf.out
Reading from standard input... Use '--help' for help.
============================[ Problem Statistics ]=============================
|                                                                             |
|  Number of variables:         87638                                         |
|  Number of clauses:          161767                                         |
|  Parse time:                   0.04 s                                       |
|                                                                             |
============================[ Search Statistics ]==============================
| Conflicts |          ORIGINAL         |          LEARNT          | Progress |
|           |    Vars  Clauses Literals |    Limit  Clauses Lit/Cl |          |
===============================================================================
|       100 |   62046   103969   259760 |    38121      100     16 | 29.202 % |
|       250 |   62046   103969   259760 |    41934      250     22 | 29.202 % |
|       475 |   62046   103969   259760 |    46127      475     70 | 29.202 % |
|       812 |   62046   103969   259760 |    50740      812     61 | 29.202 % |
|      1318 |   62004   103799   259356 |    55814     1316     82 | 29.250 % |
|      2077 |   61838   103093   257689 |    61395     1962     98 | 29.439 % |
|      3216 |   61819   103017   257507 |    67535     3100    107 | 29.461 % |
|      4924 |   61801   102943   257336 |    74288     4807    108 | 29.482 % |
|      7486 |   61801   102943   257336 |    81717     7369    122 | 29.482 % |
|     11330 |   61801   102943   257336 |    89889    11213    129 | 29.482 % |
===============================================================================
restarts              : 61
conflicts             : 13667          (6347 /sec)
decisions             : 46116          (0.00 % random) (21418 /sec)
propagations          : 21479128       (9975653 /sec)
conflict literals     : 1555740        (46.48 % deleted)
Memory used           : 37.13 MB
CPU time              : 2.15315 s

UNSATISFIABLE
